set CITIES :=
1 2 3 4 5 6 7 8 9 10 11 12 13 14 15 16 17 18 19 20 21 22 23 24 25 26 27 28 29 30 31 32 33 34 35 36 37 38 39 40 41 42 43 44 45 46 47 48 49 50
;

set REQ :=
1 15 16 32
;

set EDGES :=
2 23
6 39
7 26
7 32
11 40
18 34
18 35
19 26
22 30
22 47
25 32
28 30
40 47
1 2
2 3
3 4
4 5
5 6
6 7
7 8
8 9
9 10
10 11
11 12
12 13
13 14
14 15
15 16
16 17
17 18
18 19
19 20
20 21
21 22
22 23
23 24
24 25
25 26
26 27
27 28
28 29
29 30
30 31
31 32
32 33
33 34
34 35
35 36
36 37
37 38
38 39
39 40
40 41
41 42
42 43
43 44
44 45
45 46
46 47
47 48
48 49
49 50
;

param COST_int :=
2 23 3
6 39 8
7 26 12
7 32 8
11 40 12
18 34 6
18 35 11
19 26 11
22 30 12
22 47 6
25 32 7
28 30 11
40 47 5
1 2 5
2 3 4
3 4 9
4 5 3
5 6 5
6 7 9
7 8 4
8 9 11
9 10 7
10 11 3
11 12 12
12 13 11
13 14 11
14 15 9
15 16 4
16 17 10
17 18 9
18 19 8
19 20 9
20 21 12
21 22 4
22 23 4
23 24 7
24 25 9
25 26 12
26 27 11
27 28 9
28 29 8
29 30 6
30 31 5
31 32 5
32 33 12
33 34 4
34 35 5
35 36 3
36 37 3
37 38 3
38 39 6
39 40 5
40 41 4
41 42 9
42 43 4
43 44 4
44 45 9
45 46 12
46 47 6
47 48 6
48 49 10
49 50 11
;

